num_offers = 35;
num_halls = 10;
start=[42,81,51,52,26,8,10,30,66,25,25,37,22,46,36,26,3,6,35,37,53,13,16,22,28,31,6,22,1,80,52,51,64,65,3];
end=[84,92,68,54,42,25,14,70,99,84,63,79,26,51,80,45,81,77,58,73,56,73,21,67,75,41,61,55,87,89,91,98,81,86,12];
price=[946,805,848,101,1038,1768,395,1169,920,2077,3213,2852,218,345,1100,360,3171,6633,763,1631,52,4019,222,4235,4015,494,5439,2739,4214,238,3689,4194,968,1297,217];
requirement=[418,851,340,665,778,747,881,223,543,669,216,947,347,805,264,950,660,341,478,364,884,809,677,434,384,398,425,560,287,444,784,617,908,308,516];
capacity=[229,478,392,381,681,626,499,538,305,955];
